120
150
53
54
48
25
50
43
31
27
52
39
65
58
27
90
80
25
32
45
27
45
22
37
45
31
52
67
27
34
71
45
80
76
20
34
80
78
28
29
56
28
69
26
26
55
89
27
89
27
22
59
45
71
79
45
44
55
36
25
54
54
98
76
39
65
32
52
54
32
32
79
94
39
93
52
55
83
67
73
77
67
83
52
42
39
40
36
82
68
59
94
90
55
55
94
35
34
71
79
43
55
52
94
55
32
80
67
71
79
55
94
45
68
37
34
32
32
71
79
60
90
